\ SCIP STATISTICS
\   Problem name     : CapacitatedFacilityLocation-20-10
\   Variables        : 210 (210 binary, 0 integer, 0 implicit integer, 0 continuous)
\   Constraints      : 231
Minimize
 Obj: +1278.21162859973 x0 +1295.37703824508 x1 +797.533238119236 x2 +1083.10102903813 x3 +775.083112397616 x4
      +1022.55079751354 x5 +886.393227064757 x6 +1106.17678119172 x7 +1144.74553466265 x8 +831.743562745582 x9
      +78.0931441227937 x10 +103.351206749962 x11 +137.523253084282 x12 +8.65392326272094 x13 +87.3130460823702 x14
      +68.6846875426725 x15 +32.7541451440541 x16 +95.4415499478551 x17 +51.5371886156541 x18 +35.180909998522 x19
      +254.170389318439 x20 +64.5712641560333 x21 +251.413077423116 x22 +277.821245765378 x23 +142.333353122627 x24
      +319.29323588489 x25 +206.438398843385 x26 +229.219127037671 x27 +168.257518091444 x28 +280.042901361053 x29
      +20.501669687838 x30 +79.2775716671482 x31 +84.8851861216752 x32 +73.0837589958874 x33 +46.5569819294502 x34
      +38.7062684276451 x35 +42.5666473939278 x36 +38.3376899689335 x37 +38.5385406544471 x38 +35.1313538770111 x39
      +54.1409364188325 x40 +80.3448394500021 x41 +100.583714441335 x42 +14.9693880849471 x43 +65.8305051697346 x44
      +44.165202827762 x45 +27.234810043779 x46 +68.4624268863465 x47 +40.7581512153561 x48 +19.9982337051755 x49
      +72.9818346678511 x50 +214.413411455723 x51 +103.354734644351 x52 +291.973594612149 x53 +134.795656071461 x54
      +145.347193704155 x55 +214.663287652413 x56 +41.0537680918435 x57 +188.741837750283 x58 +192.99131069406 x59
      +106.939623173275 x60 +150.892406388602 x61 +229.680825810766 x62 +168.425698799684 x63 +85.7208861835798 x64
      +158.465029809492 x65 +71.6320759012001 x66 +124.620173929708 x67 +37.558954630695 x68 +115.580769450622 x69
      +53.3638248695413 x70 +159.617309757194 x71 +174.071522479708 x72 +111.398347470775 x73 +104.990665294749 x74
      +56.1543894190145 x75 +68.9103688254955 x76 +91.3340784946229 x77 +74.4425372569088 x78 +37.3867290775609 x79
      +31.0325948508483 x80 +212.86622144017 x81 +144.937628795129 x82 +235.046519077301 x83 +133.654876542203 x84
      +87.2082630458827 x85 +171.454489351872 x86 +55.7306128107035 x87 +157.056952500319 x88 +136.632171731852 x89
      +38.3776466307586 x90 +94.436492024348 x91 +83.7265399550145 x92 +61.543701479844 x93 +71.2139260486743 x94
      +13.2926179177228 x95 +56.9253560241799 x96 +54.88345955164 x97 +62.163507805445 x98 +31.5311196831316 x99
      +22.6494908673313 x100 +24.2390591492459 x101 +42.3392978834086 x102 +31.4381846782779 x103 +14.1945273557776 x104
      +32.5799229027545 x105 +13.4594866251249 x106 +24.4965020618933 x107 +4.9101777395719 x108 +24.1821151032456 x109
      +109.359549955778 x110 +28.2035823904569 x111 +106.235261075999 x112 +173.304925681363 x113 +31.6622247298134 x114
      +160.616644083063 x115 +114.054872435255 x116 +86.6308612164815 x117 +82.7532519345082 x118 +148.297575321301 x119
      +143.82685911749 x120 +337.8601091104 x121 +297.870617818203 x122 +219.910630982348 x123 +257.738729080337 x124
      +58.0054074678465 x125 +207.440636567836 x126 +200.100428136698 x127 +226.378415881131 x128 +119.118849104438 x129
      +143.787246424997 x130 +30.4193222429343 x131 +155.779291048733 x132 +156.237547117813 x133 +73.3035440285769 x134
      +184.110403442202 x135 +108.381864245619 x136 +131.260568269422 x137 +83.3780805775391 x138 +156.721216631016 x139
      +53.5922980230879 x140 +65.9639138214906 x141 +42.4338467355026 x142 +139.094871117673 x143 +33.9804428476842 x144
      +95.6978451292624 x145 +95.5072797597206 x146 +26.8746804462535 x147 +75.8751035899653 x148 +102.847016625674 x149
      +62.6785768778437 x150 +17.3659054693019 x151 +71.4340232739654 x152 +93.2959892341826 x153 +16.2936627929019 x154
      +91.3286393831137 x155 +58.0165962649459 x156 +52.7829060942814 x157 +39.2515861384862 x158 +80.714228918549 x159
      +107.507309704002 x160 +22.421117283876 x161 +106.814757632303 x162 +121.030010548933 x163 +57.2697917996633 x164
      +137.019514462887 x165 +87.9813176518447 x166 +96.1973455664878 x167 +70.2927860132727 x168 +120.19366574022 x169
      +48.867200385701 x170 +124.511603009438 x171 +130.154094348744 x172 +69.2200632224111 x173 +89.3844031712155 x174
      +27.5729269618115 x175 +55.2273944187327 x176 +76.5354486065713 x177 +65.4458073565144 x178 +14.7853280850727 x179
      +171.906191354095 x180 +196.611750920152 x181 +279.211205313069 x182 +15.147454465285 x183 +175.354211475682 x184
      +160.476560560354 x185 +70.0478498929835 x186 +201.129333525213 x187 +103.895424220973 x188 +95.6023613882132 x189
      +146.581945397255 x190 +42.301097072299 x191 +145.088998855548 x192 +156.327128879912 x193 +85.0737679329996 x194
      +182.067909463515 x195 +118.119756840164 x196 +133.102752509851 x197 +97.7069028878305 x198 +159.520406285365 x199
      +53.3977508001349 x200 +107.700086706185 x201 +126.673423899242 x202 +48.7252028779698 x203 +78.7911887611056 x204
      +43.071585955588 x205 +35.2075217451561 x206 +76.3957865018047 x207 +48.5137113538094 x208 +5.71975892309984 x209
Subject to
 c0: +1 x10 +1 x11 +1 x12 +1 x13 +1 x14 +1 x15 +1 x16 +1 x17 +1 x18 +1 x19 >= +1
 c1: +1 x20 +1 x21 +1 x22 +1 x23 +1 x24 +1 x25 +1 x26 +1 x27 +1 x28 +1 x29 >= +1
 c2: +1 x30 +1 x31 +1 x32 +1 x33 +1 x34 +1 x35 +1 x36 +1 x37 +1 x38 +1 x39 >= +1
 c3: +1 x40 +1 x41 +1 x42 +1 x43 +1 x44 +1 x45 +1 x46 +1 x47 +1 x48 +1 x49 >= +1
 c4: +1 x50 +1 x51 +1 x52 +1 x53 +1 x54 +1 x55 +1 x56 +1 x57 +1 x58 +1 x59 >= +1
 c5: +1 x60 +1 x61 +1 x62 +1 x63 +1 x64 +1 x65 +1 x66 +1 x67 +1 x68 +1 x69 >= +1
 c6: +1 x70 +1 x71 +1 x72 +1 x73 +1 x74 +1 x75 +1 x76 +1 x77 +1 x78 +1 x79 >= +1
 c7: +1 x80 +1 x81 +1 x82 +1 x83 +1 x84 +1 x85 +1 x86 +1 x87 +1 x88 +1 x89 >= +1
 c8: +1 x90 +1 x91 +1 x92 +1 x93 +1 x94 +1 x95 +1 x96 +1 x97 +1 x98 +1 x99 >= +1
 c9: +1 x100 +1 x101 +1 x102 +1 x103 +1 x104 +1 x105 +1 x106 +1 x107 +1 x108 +1 x109 >= +1
 c10: +1 x110 +1 x111 +1 x112 +1 x113 +1 x114 +1 x115 +1 x116 +1 x117 +1 x118 +1 x119 >= +1
 c11: +1 x120 +1 x121 +1 x122 +1 x123 +1 x124 +1 x125 +1 x126 +1 x127 +1 x128 +1 x129 >= +1
 c12: +1 x130 +1 x131 +1 x132 +1 x133 +1 x134 +1 x135 +1 x136 +1 x137 +1 x138 +1 x139 >= +1
 c13: +1 x140 +1 x141 +1 x142 +1 x143 +1 x144 +1 x145 +1 x146 +1 x147 +1 x148 +1 x149 >= +1
 c14: +1 x150 +1 x151 +1 x152 +1 x153 +1 x154 +1 x155 +1 x156 +1 x157 +1 x158 +1 x159 >= +1
 c15: +1 x160 +1 x161 +1 x162 +1 x163 +1 x164 +1 x165 +1 x166 +1 x167 +1 x168 +1 x169 >= +1
 c16: +1 x170 +1 x171 +1 x172 +1 x173 +1 x174 +1 x175 +1 x176 +1 x177 +1 x178 +1 x179 >= +1
 c17: +1 x180 +1 x181 +1 x182 +1 x183 +1 x184 +1 x185 +1 x186 +1 x187 +1 x188 +1 x189 >= +1
 c18: +1 x190 +1 x191 +1 x192 +1 x193 +1 x194 +1 x195 +1 x196 +1 x197 +1 x198 +1 x199 >= +1
 c19: +1 x200 +1 x201 +1 x202 +1 x203 +1 x204 +1 x205 +1 x206 +1 x207 +1 x208 +1 x209 >= +1
 c20: +12 x10 +29 x20 +13 x30 +9 x40 +31 x50 +33 x60 +23 x70 +29 x80 +9 x90 +6 x100 +20 x110 +31 x120
  +19 x130 +15 x140 +12 x150 +13 x160 +15 x170 +23 x180 +16 x190 +14 x200 -298 x0 <= +0
 c21: +12 x11 +29 x21 +13 x31 +9 x41 +31 x51 +33 x61 +23 x71 +29 x81 +9 x91 +6 x101 +20 x111 +31 x121
  +19 x131 +15 x141 +12 x151 +13 x161 +15 x171 +23 x181 +16 x191 +14 x201 -302 x1 <= +0
 c22: +12 x12 +29 x22 +13 x32 +9 x42 +31 x52 +33 x62 +23 x72 +29 x82 +9 x92 +6 x102 +20 x112 +31 x122
  +19 x132 +15 x142 +12 x152 +13 x162 +15 x172 +23 x182 +16 x192 +14 x202 -108 x2 <= +0
 c23: +12 x13 +29 x23 +13 x33 +9 x43 +31 x53 +33 x63 +23 x73 +29 x83 +9 x93 +6 x103 +20 x113 +31 x123
  +19 x133 +15 x143 +12 x153 +13 x163 +15 x173 +23 x183 +16 x193 +14 x203 -218 x3 <= +0
 c24: +12 x14 +29 x24 +13 x34 +9 x44 +31 x54 +33 x64 +23 x74 +29 x84 +9 x94 +6 x104 +20 x114 +31 x124
  +19 x134 +15 x144 +12 x154 +13 x164 +15 x174 +23 x184 +16 x194 +14 x204 -112 x4 <= +0
 c25: +12 x15 +29 x25 +13 x35 +9 x45 +31 x55 +33 x65 +23 x75 +29 x85 +9 x95 +6 x105 +20 x115 +31 x125
  +19 x135 +15 x145 +12 x155 +13 x165 +15 x175 +23 x185 +16 x195 +14 x205 -169 x5 <= +0
 c26: +12 x16 +29 x26 +13 x36 +9 x46 +31 x56 +33 x66 +23 x76 +29 x86 +9 x96 +6 x106 +20 x116 +31 x126
  +19 x136 +15 x146 +12 x156 +13 x166 +15 x176 +23 x186 +16 x196 +14 x206 -137 x6 <= +0
 c27: +12 x17 +29 x27 +13 x37 +9 x47 +31 x57 +33 x67 +23 x77 +29 x87 +9 x97 +6 x107 +20 x117 +31 x127
  +19 x137 +15 x147 +12 x157 +13 x167 +15 x177 +23 x187 +16 x197 +14 x207 -206 x7 <= +0
 c28: +12 x18 +29 x28 +13 x38 +9 x48 +31 x58 +33 x68 +23 x78 +29 x88 +9 x98 +6 x108 +20 x118 +31 x128
  +19 x138 +15 x148 +12 x158 +13 x168 +15 x178 +23 x188 +16 x198 +14 x208 -208 x8 <= +0
 c29: +12 x19 +29 x29 +13 x39 +9 x49 +31 x59 +33 x69 +23 x79 +29 x89 +9 x99 +6 x109 +20 x119 +31 x129
  +19 x139 +15 x149 +12 x159 +13 x169 +15 x179 +23 x189 +16 x199 +14 x209 -102 x9 <= +0
 c30: +298 x0 +302 x1 +108 x2 +218 x3 +112 x4 +169 x5 +137 x6 +206 x7 +208 x8 +102 x9 >= +372
 c31: +1 x10 -1 x0 <= +0
 c32: +1 x11 -1 x1 <= +0
 c33: +1 x12 -1 x2 <= +0
 c34: +1 x13 -1 x3 <= +0
 c35: +1 x14 -1 x4 <= +0
 c36: +1 x15 -1 x5 <= +0
 c37: +1 x16 -1 x6 <= +0
 c38: +1 x17 -1 x7 <= +0
 c39: +1 x18 -1 x8 <= +0
 c40: +1 x19 -1 x9 <= +0
 c41: +1 x20 -1 x0 <= +0
 c42: +1 x21 -1 x1 <= +0
 c43: +1 x22 -1 x2 <= +0
 c44: +1 x23 -1 x3 <= +0
 c45: +1 x24 -1 x4 <= +0
 c46: +1 x25 -1 x5 <= +0
 c47: +1 x26 -1 x6 <= +0
 c48: +1 x27 -1 x7 <= +0
 c49: +1 x28 -1 x8 <= +0
 c50: +1 x29 -1 x9 <= +0
 c51: +1 x30 -1 x0 <= +0
 c52: +1 x31 -1 x1 <= +0
 c53: +1 x32 -1 x2 <= +0
 c54: +1 x33 -1 x3 <= +0
 c55: +1 x34 -1 x4 <= +0
 c56: +1 x35 -1 x5 <= +0
 c57: +1 x36 -1 x6 <= +0
 c58: +1 x37 -1 x7 <= +0
 c59: +1 x38 -1 x8 <= +0
 c60: +1 x39 -1 x9 <= +0
 c61: +1 x40 -1 x0 <= +0
 c62: +1 x41 -1 x1 <= +0
 c63: +1 x42 -1 x2 <= +0
 c64: +1 x43 -1 x3 <= +0
 c65: +1 x44 -1 x4 <= +0
 c66: +1 x45 -1 x5 <= +0
 c67: +1 x46 -1 x6 <= +0
 c68: +1 x47 -1 x7 <= +0
 c69: +1 x48 -1 x8 <= +0
 c70: +1 x49 -1 x9 <= +0
 c71: +1 x50 -1 x0 <= +0
 c72: +1 x51 -1 x1 <= +0
 c73: +1 x52 -1 x2 <= +0
 c74: +1 x53 -1 x3 <= +0
 c75: +1 x54 -1 x4 <= +0
 c76: +1 x55 -1 x5 <= +0
 c77: +1 x56 -1 x6 <= +0
 c78: +1 x57 -1 x7 <= +0
 c79: +1 x58 -1 x8 <= +0
 c80: +1 x59 -1 x9 <= +0
 c81: +1 x60 -1 x0 <= +0
 c82: +1 x61 -1 x1 <= +0
 c83: +1 x62 -1 x2 <= +0
 c84: +1 x63 -1 x3 <= +0
 c85: +1 x64 -1 x4 <= +0
 c86: +1 x65 -1 x5 <= +0
 c87: +1 x66 -1 x6 <= +0
 c88: +1 x67 -1 x7 <= +0
 c89: +1 x68 -1 x8 <= +0
 c90: +1 x69 -1 x9 <= +0
 c91: +1 x70 -1 x0 <= +0
 c92: +1 x71 -1 x1 <= +0
 c93: +1 x72 -1 x2 <= +0
 c94: +1 x73 -1 x3 <= +0
 c95: +1 x74 -1 x4 <= +0
 c96: +1 x75 -1 x5 <= +0
 c97: +1 x76 -1 x6 <= +0
 c98: +1 x77 -1 x7 <= +0
 c99: +1 x78 -1 x8 <= +0
 c100: +1 x79 -1 x9 <= +0
 c101: +1 x80 -1 x0 <= +0
 c102: +1 x81 -1 x1 <= +0
 c103: +1 x82 -1 x2 <= +0
 c104: +1 x83 -1 x3 <= +0
 c105: +1 x84 -1 x4 <= +0
 c106: +1 x85 -1 x5 <= +0
 c107: +1 x86 -1 x6 <= +0
 c108: +1 x87 -1 x7 <= +0
 c109: +1 x88 -1 x8 <= +0
 c110: +1 x89 -1 x9 <= +0
 c111: +1 x90 -1 x0 <= +0
 c112: +1 x91 -1 x1 <= +0
 c113: +1 x92 -1 x2 <= +0
 c114: +1 x93 -1 x3 <= +0
 c115: +1 x94 -1 x4 <= +0
 c116: +1 x95 -1 x5 <= +0
 c117: +1 x96 -1 x6 <= +0
 c118: +1 x97 -1 x7 <= +0
 c119: +1 x98 -1 x8 <= +0
 c120: +1 x99 -1 x9 <= +0
 c121: +1 x100 -1 x0 <= +0
 c122: +1 x101 -1 x1 <= +0
 c123: +1 x102 -1 x2 <= +0
 c124: +1 x103 -1 x3 <= +0
 c125: +1 x104 -1 x4 <= +0
 c126: +1 x105 -1 x5 <= +0
 c127: +1 x106 -1 x6 <= +0
 c128: +1 x107 -1 x7 <= +0
 c129: +1 x108 -1 x8 <= +0
 c130: +1 x109 -1 x9 <= +0
 c131: +1 x110 -1 x0 <= +0
 c132: +1 x111 -1 x1 <= +0
 c133: +1 x112 -1 x2 <= +0
 c134: +1 x113 -1 x3 <= +0
 c135: +1 x114 -1 x4 <= +0
 c136: +1 x115 -1 x5 <= +0
 c137: +1 x116 -1 x6 <= +0
 c138: +1 x117 -1 x7 <= +0
 c139: +1 x118 -1 x8 <= +0
 c140: +1 x119 -1 x9 <= +0
 c141: +1 x120 -1 x0 <= +0
 c142: +1 x121 -1 x1 <= +0
 c143: +1 x122 -1 x2 <= +0
 c144: +1 x123 -1 x3 <= +0
 c145: +1 x124 -1 x4 <= +0
 c146: +1 x125 -1 x5 <= +0
 c147: +1 x126 -1 x6 <= +0
 c148: +1 x127 -1 x7 <= +0
 c149: +1 x128 -1 x8 <= +0
 c150: +1 x129 -1 x9 <= +0
 c151: +1 x130 -1 x0 <= +0
 c152: +1 x131 -1 x1 <= +0
 c153: +1 x132 -1 x2 <= +0
 c154: +1 x133 -1 x3 <= +0
 c155: +1 x134 -1 x4 <= +0
 c156: +1 x135 -1 x5 <= +0
 c157: +1 x136 -1 x6 <= +0
 c158: +1 x137 -1 x7 <= +0
 c159: +1 x138 -1 x8 <= +0
 c160: +1 x139 -1 x9 <= +0
 c161: +1 x140 -1 x0 <= +0
 c162: +1 x141 -1 x1 <= +0
 c163: +1 x142 -1 x2 <= +0
 c164: +1 x143 -1 x3 <= +0
 c165: +1 x144 -1 x4 <= +0
 c166: +1 x145 -1 x5 <= +0
 c167: +1 x146 -1 x6 <= +0
 c168: +1 x147 -1 x7 <= +0
 c169: +1 x148 -1 x8 <= +0
 c170: +1 x149 -1 x9 <= +0
 c171: +1 x150 -1 x0 <= +0
 c172: +1 x151 -1 x1 <= +0
 c173: +1 x152 -1 x2 <= +0
 c174: +1 x153 -1 x3 <= +0
 c175: +1 x154 -1 x4 <= +0
 c176: +1 x155 -1 x5 <= +0
 c177: +1 x156 -1 x6 <= +0
 c178: +1 x157 -1 x7 <= +0
 c179: +1 x158 -1 x8 <= +0
 c180: +1 x159 -1 x9 <= +0
 c181: +1 x160 -1 x0 <= +0
 c182: +1 x161 -1 x1 <= +0
 c183: +1 x162 -1 x2 <= +0
 c184: +1 x163 -1 x3 <= +0
 c185: +1 x164 -1 x4 <= +0
 c186: +1 x165 -1 x5 <= +0
 c187: +1 x166 -1 x6 <= +0
 c188: +1 x167 -1 x7 <= +0
 c189: +1 x168 -1 x8 <= +0
 c190: +1 x169 -1 x9 <= +0
 c191: +1 x170 -1 x0 <= +0
 c192: +1 x171 -1 x1 <= +0
 c193: +1 x172 -1 x2 <= +0
 c194: +1 x173 -1 x3 <= +0
 c195: +1 x174 -1 x4 <= +0
 c196: +1 x175 -1 x5 <= +0
 c197: +1 x176 -1 x6 <= +0
 c198: +1 x177 -1 x7 <= +0
 c199: +1 x178 -1 x8 <= +0
 c200: +1 x179 -1 x9 <= +0
 c201: +1 x180 -1 x0 <= +0
 c202: +1 x181 -1 x1 <= +0
 c203: +1 x182 -1 x2 <= +0
 c204: +1 x183 -1 x3 <= +0
 c205: +1 x184 -1 x4 <= +0
 c206: +1 x185 -1 x5 <= +0
 c207: +1 x186 -1 x6 <= +0
 c208: +1 x187 -1 x7 <= +0
 c209: +1 x188 -1 x8 <= +0
 c210: +1 x189 -1 x9 <= +0
 c211: +1 x190 -1 x0 <= +0
 c212: +1 x191 -1 x1 <= +0
 c213: +1 x192 -1 x2 <= +0
 c214: +1 x193 -1 x3 <= +0
 c215: +1 x194 -1 x4 <= +0
 c216: +1 x195 -1 x5 <= +0
 c217: +1 x196 -1 x6 <= +0
 c218: +1 x197 -1 x7 <= +0
 c219: +1 x198 -1 x8 <= +0
 c220: +1 x199 -1 x9 <= +0
 c221: +1 x200 -1 x0 <= +0
 c222: +1 x201 -1 x1 <= +0
 c223: +1 x202 -1 x2 <= +0
 c224: +1 x203 -1 x3 <= +0
 c225: +1 x204 -1 x4 <= +0
 c226: +1 x205 -1 x5 <= +0
 c227: +1 x206 -1 x6 <= +0
 c228: +1 x207 -1 x7 <= +0
 c229: +1 x208 -1 x8 <= +0
 c230: +1 x209 -1 x9 <= +0
Bounds
 0 <= x0 <= 1
 0 <= x1 <= 1
 0 <= x2 <= 1
 0 <= x3 <= 1
 0 <= x4 <= 1
 0 <= x5 <= 1
 0 <= x6 <= 1
 0 <= x7 <= 1
 0 <= x8 <= 1
 0 <= x9 <= 1
 0 <= x10 <= 1
 0 <= x11 <= 1
 0 <= x12 <= 1
 0 <= x13 <= 1
 0 <= x14 <= 1
 0 <= x15 <= 1
 0 <= x16 <= 1
 0 <= x17 <= 1
 0 <= x18 <= 1
 0 <= x19 <= 1
 0 <= x20 <= 1
 0 <= x21 <= 1
 0 <= x22 <= 1
 0 <= x23 <= 1
 0 <= x24 <= 1
 0 <= x25 <= 1
 0 <= x26 <= 1
 0 <= x27 <= 1
 0 <= x28 <= 1
 0 <= x29 <= 1
 0 <= x30 <= 1
 0 <= x31 <= 1
 0 <= x32 <= 1
 0 <= x33 <= 1
 0 <= x34 <= 1
 0 <= x35 <= 1
 0 <= x36 <= 1
 0 <= x37 <= 1
 0 <= x38 <= 1
 0 <= x39 <= 1
 0 <= x40 <= 1
 0 <= x41 <= 1
 0 <= x42 <= 1
 0 <= x43 <= 1
 0 <= x44 <= 1
 0 <= x45 <= 1
 0 <= x46 <= 1
 0 <= x47 <= 1
 0 <= x48 <= 1
 0 <= x49 <= 1
 0 <= x50 <= 1
 0 <= x51 <= 1
 0 <= x52 <= 1
 0 <= x53 <= 1
 0 <= x54 <= 1
 0 <= x55 <= 1
 0 <= x56 <= 1
 0 <= x57 <= 1
 0 <= x58 <= 1
 0 <= x59 <= 1
 0 <= x60 <= 1
 0 <= x61 <= 1
 0 <= x62 <= 1
 0 <= x63 <= 1
 0 <= x64 <= 1
 0 <= x65 <= 1
 0 <= x66 <= 1
 0 <= x67 <= 1
 0 <= x68 <= 1
 0 <= x69 <= 1
 0 <= x70 <= 1
 0 <= x71 <= 1
 0 <= x72 <= 1
 0 <= x73 <= 1
 0 <= x74 <= 1
 0 <= x75 <= 1
 0 <= x76 <= 1
 0 <= x77 <= 1
 0 <= x78 <= 1
 0 <= x79 <= 1
 0 <= x80 <= 1
 0 <= x81 <= 1
 0 <= x82 <= 1
 0 <= x83 <= 1
 0 <= x84 <= 1
 0 <= x85 <= 1
 0 <= x86 <= 1
 0 <= x87 <= 1
 0 <= x88 <= 1
 0 <= x89 <= 1
 0 <= x90 <= 1
 0 <= x91 <= 1
 0 <= x92 <= 1
 0 <= x93 <= 1
 0 <= x94 <= 1
 0 <= x95 <= 1
 0 <= x96 <= 1
 0 <= x97 <= 1
 0 <= x98 <= 1
 0 <= x99 <= 1
 0 <= x100 <= 1
 0 <= x101 <= 1
 0 <= x102 <= 1
 0 <= x103 <= 1
 0 <= x104 <= 1
 0 <= x105 <= 1
 0 <= x106 <= 1
 0 <= x107 <= 1
 0 <= x108 <= 1
 0 <= x109 <= 1
 0 <= x110 <= 1
 0 <= x111 <= 1
 0 <= x112 <= 1
 0 <= x113 <= 1
 0 <= x114 <= 1
 0 <= x115 <= 1
 0 <= x116 <= 1
 0 <= x117 <= 1
 0 <= x118 <= 1
 0 <= x119 <= 1
 0 <= x120 <= 1
 0 <= x121 <= 1
 0 <= x122 <= 1
 0 <= x123 <= 1
 0 <= x124 <= 1
 0 <= x125 <= 1
 0 <= x126 <= 1
 0 <= x127 <= 1
 0 <= x128 <= 1
 0 <= x129 <= 1
 0 <= x130 <= 1
 0 <= x131 <= 1
 0 <= x132 <= 1
 0 <= x133 <= 1
 0 <= x134 <= 1
 0 <= x135 <= 1
 0 <= x136 <= 1
 0 <= x137 <= 1
 0 <= x138 <= 1
 0 <= x139 <= 1
 0 <= x140 <= 1
 0 <= x141 <= 1
 0 <= x142 <= 1
 0 <= x143 <= 1
 0 <= x144 <= 1
 0 <= x145 <= 1
 0 <= x146 <= 1
 0 <= x147 <= 1
 0 <= x148 <= 1
 0 <= x149 <= 1
 0 <= x150 <= 1
 0 <= x151 <= 1
 0 <= x152 <= 1
 0 <= x153 <= 1
 0 <= x154 <= 1
 0 <= x155 <= 1
 0 <= x156 <= 1
 0 <= x157 <= 1
 0 <= x158 <= 1
 0 <= x159 <= 1
 0 <= x160 <= 1
 0 <= x161 <= 1
 0 <= x162 <= 1
 0 <= x163 <= 1
 0 <= x164 <= 1
 0 <= x165 <= 1
 0 <= x166 <= 1
 0 <= x167 <= 1
 0 <= x168 <= 1
 0 <= x169 <= 1
 0 <= x170 <= 1
 0 <= x171 <= 1
 0 <= x172 <= 1
 0 <= x173 <= 1
 0 <= x174 <= 1
 0 <= x175 <= 1
 0 <= x176 <= 1
 0 <= x177 <= 1
 0 <= x178 <= 1
 0 <= x179 <= 1
 0 <= x180 <= 1
 0 <= x181 <= 1
 0 <= x182 <= 1
 0 <= x183 <= 1
 0 <= x184 <= 1
 0 <= x185 <= 1
 0 <= x186 <= 1
 0 <= x187 <= 1
 0 <= x188 <= 1
 0 <= x189 <= 1
 0 <= x190 <= 1
 0 <= x191 <= 1
 0 <= x192 <= 1
 0 <= x193 <= 1
 0 <= x194 <= 1
 0 <= x195 <= 1
 0 <= x196 <= 1
 0 <= x197 <= 1
 0 <= x198 <= 1
 0 <= x199 <= 1
 0 <= x200 <= 1
 0 <= x201 <= 1
 0 <= x202 <= 1
 0 <= x203 <= 1
 0 <= x204 <= 1
 0 <= x205 <= 1
 0 <= x206 <= 1
 0 <= x207 <= 1
 0 <= x208 <= 1
 0 <= x209 <= 1
Binaries
 x0 x1 x2 x3 x4 x5 x6 x7 x8 x9 x10 x11 x12 x13 x14 x15 x16 x17 x18 x19 x20 x21 x22 x23 x24 x25 x26 x27
 x28 x29 x30 x31 x32 x33 x34 x35 x36 x37 x38 x39 x40 x41 x42 x43 x44 x45 x46 x47 x48 x49 x50 x51 x52 x53
 x54 x55 x56 x57 x58 x59 x60 x61 x62 x63 x64 x65 x66 x67 x68 x69 x70 x71 x72 x73 x74 x75 x76 x77 x78 x79
 x80 x81 x82 x83 x84 x85 x86 x87 x88 x89 x90 x91 x92 x93 x94 x95 x96 x97 x98 x99 x100 x101 x102 x103 x104
 x105 x106 x107 x108 x109 x110 x111 x112 x113 x114 x115 x116 x117 x118 x119 x120 x121 x122 x123 x124 x125
 x126 x127 x128 x129 x130 x131 x132 x133 x134 x135 x136 x137 x138 x139 x140 x141 x142 x143 x144 x145 x146
 x147 x148 x149 x150 x151 x152 x153 x154 x155 x156 x157 x158 x159 x160 x161 x162 x163 x164 x165 x166 x167
 x168 x169 x170 x171 x172 x173 x174 x175 x176 x177 x178 x179 x180 x181 x182 x183 x184 x185 x186 x187 x188
 x189 x190 x191 x192 x193 x194 x195 x196 x197 x198 x199 x200 x201 x202 x203 x204 x205 x206 x207 x208 x209
End
